Timesteps: 1
s UNSATISFIABLE
real 0.10
user 0.00
sys 0.00
Timesteps: 2
s UNSATISFIABLE
real 0.09
user 0.02
sys 0.00
Timesteps: 3
s UNSATISFIABLE
real 0.11
user 0.03
sys 0.00
Timesteps: 4
s UNSATISFIABLE
real 0.17
user 0.04
sys 0.00
Timesteps: 5
s UNSATISFIABLE
real 0.09
user 0.04
sys 0.00
Timesteps: 6
s UNSATISFIABLE
real 0.14
user 0.08
sys 0.00
Timesteps: 7
s UNSATISFIABLE
real 0.23
user 0.16
sys 0.00
Timesteps: 8
s UNSATISFIABLE
real 0.36
user 0.26
sys 0.01
Timesteps: 9
s UNSATISFIABLE
real 0.46
user 0.37
sys 0.01
Timesteps: 10
s UNSATISFIABLE
real 0.45
user 0.36
sys 0.01
Timesteps: 11
s UNSATISFIABLE
real 0.55
user 0.43
sys 0.00
Timesteps: 12
s UNSATISFIABLE
real 1.42
user 1.29
sys 0.01
Timesteps: 13
s UNSATISFIABLE
real 1.65
user 1.51
sys 0.01
Timesteps: 14
s UNSATISFIABLE
real 2.82
user 2.67
sys 0.01
Timesteps: 15
s UNSATISFIABLE
real 2.72
user 2.55
sys 0.01
Timesteps: 16
s UNSATISFIABLE
real 4.25
user 4.05
sys 0.01
Timesteps: 17
s UNSATISFIABLE
real 3.73
user 3.55
sys 0.01
Timesteps: 18
s UNSATISFIABLE
real 6.45
user 6.24
sys 0.02
Timesteps: 19
s UNSATISFIABLE
real 7.69
user 7.44
sys 0.04
Timesteps: 20
s UNSATISFIABLE
real 7.68
user 7.43
sys 0.03
Timesteps: 21
s UNSATISFIABLE
real 8.79
user 8.53
sys 0.03
Timesteps: 22
s UNSATISFIABLE
real 8.90
user 8.62
sys 0.04
Timesteps: 23
s UNSATISFIABLE
real 9.35
user 9.05
sys 0.05
Timesteps: 24
s UNSATISFIABLE
real 11.11
user 10.79
sys 0.04
Timesteps: 25
s UNSATISFIABLE
real 11.05
user 10.58
sys 0.05
Timesteps: 26
s UNSATISFIABLE
real 11.68
user 11.35
sys 0.04
Timesteps: 27
s UNSATISFIABLE
real 12.49
user 12.14
sys 0.05
Timesteps: 28
s UNSATISFIABLE
real 14.74
user 14.37
sys 0.05
Timesteps: 29
s UNSATISFIABLE
real 15.25
user 14.87
sys 0.06
Timesteps: 30
s UNSATISFIABLE
real 13.05
user 12.67
sys 0.06
Timesteps: 31
s UNSATISFIABLE
real 15.93
user 15.55
sys 0.05
Timesteps: 32
s UNSATISFIABLE
real 17.58
user 17.15
sys 0.07
Timesteps: 33
s UNSATISFIABLE
real 32.01
user 31.01
sys 0.09
Timesteps: 34
s UNSATISFIABLE
real 33.61
user 32.56
sys 0.10
Timesteps: 35
s UNSATISFIABLE
real 39.00
user 37.93
sys 0.12
Timesteps: 36
s UNSATISFIABLE
real 36.41
user 35.31
sys 0.11
Timesteps: 37
s UNSATISFIABLE
real 42.46
user 41.27
sys 0.11
Timesteps: 38
s UNSATISFIABLE
real 47.67
user 46.51
sys 0.11
Timesteps: 39
s UNSATISFIABLE
real 50.07
user 48.78
sys 0.13
Timesteps: 40
s UNSATISFIABLE
real 52.10
user 50.77
sys 0.15
Timesteps: 41
s UNSATISFIABLE
real 59.67
user 58.33
sys 0.14
Timesteps: 42
s UNSATISFIABLE
real 57.77
user 56.41
sys 0.12
Timesteps: 43
s UNSATISFIABLE
real 70.15
user 68.62
sys 0.15
Timesteps: 44
s UNSATISFIABLE
real 81.39
user 79.83
sys 0.18
Timesteps: 45
s UNSATISFIABLE
real 91.26
user 89.60
sys 0.19
Timesteps: 46
s UNSATISFIABLE
real 100.87
user 99.11
sys 0.19
Timesteps: 47
s UNSATISFIABLE
real 111.36
user 109.49
sys 0.23
Timesteps: 48
s UNSATISFIABLE
real 115.97
user 114.04
sys 0.24
Timesteps: 49
s UNSATISFIABLE
real 136.77
user 134.76
sys 0.26
Timesteps: 50
s UNSATISFIABLE
real 176.30
user 174.09
sys 0.27
Timesteps: 51
s UNSATISFIABLE
real 206.61
user 204.06
sys 0.32
Timesteps: 52
s UNSATISFIABLE
real 215.93
user 213.35
sys 0.37
Timesteps: 53
s UNSATISFIABLE
real 180.43
user 178.11
sys 0.32
Timesteps: 54
s UNSATISFIABLE
real 165.94
user 163.81
sys 0.31
Timesteps: 55
s UNSATISFIABLE
real 214.30
user 212.68
sys 0.36
Timesteps: 56
s UNSATISFIABLE
real 261.63
user 259.77
sys 0.39
Timesteps: 57
s UNSATISFIABLE
real 347.14
user 344.81
sys 0.49
Timesteps: 58
s UNSATISFIABLE
real 377.64
user 375.33
sys 0.49
Timesteps: 59
